(set-logic UFDT)
(declare-datatypes ((nat 0)) (((zero) (s (s0 nat)))))
(declare-fun add (nat nat) nat)
(declare-fun leq (nat nat) Bool)
(assert (forall ((y nat)) (= (add zero y) y)))
(assert (forall ((x nat) (y nat)) (= (add (s x) y) (s (add x y)))))
(assert (forall ((y nat)) (leq zero y)))
(assert (forall ((x nat)) (not (leq (s x) zero))))
(assert (forall ((x nat) (y nat)) (= (leq (s x) (s y)) (leq x y))))
(assert (not (forall ((v0 nat) (v1 nat) (v2 nat) (v3 nat) (v4 nat)) (= (s (add (add (add (s zero) (s (s (s v4)))) (add (s (s zero)) v1)) (add (s (s (add v0 (s v2)))) (add (s v3) (s (s v0)))))) (add (add v2 (add (s (s (s (s (add v0 (s (add (s v0) (s (s (s zero)))))))))) (add zero (s (s (s (add v3 v1))))))) (s v4))))))
(check-sat)
